rect_size = array1d(1..1,
    [|34,6|6,34|13,3|3,13|13,5|5,13|10,12|12,10|10,12|12,10|6,7|7,6|6,15|15,6|25,7|7,25|25,15|15,25|21,12|12,21|16,7|7,16|16,5|5,16|21,3|3,21|21,5|5,21|5,7|7,5|5,5|5,5|4,1|1,4|4,10|10,4|6,13|13,6|12,13|13,12|12,9|9,12|23,6|6,23|7,3|3,7|7,5|5,7|2,1|1,2|2,10|10,2|6,6|6,6|6,5|5,6|14,7|7,14|14,6|6,14|16,3|3,16|16,5|5,16|14,6|6,14|14,5|5,14|14,13|13,14|3,2|2,3|3,7|7,3|11,2|2,11|11,7|7,11|6,7|7,6|6,6|6,6|33,14|14,33|12,4|4,12|12,3|3,12|16,18|18,16|12,3|3,12|12,18|18,12|4,4|4,4|4,3|3,4|3,1|1,3|3,2|2,3|6,9|9,6|6,9|9,6|6,1|1,6|6,2|2,6|5,7|7,5|5,18|18,5|3,9|9,3|3,9|9,3|9,18|18,9|6,5|5,6|6,2|2,6|2,12|12,2|2,9|9,2|8,3|3,8|8,9|9,8|10,9|9,10|3,5|5,3|3,2|2,3|3,18|18,3|3,7|7,3|2,3|3,2|2,9|9,2|]);

rect_offset = array1d(1..1, [|0,0 |0,0 |0,0 |0,0 |0,0 |0,0 |0,0 |0,0 |0,0 |0,0 |0,0
    |0,0 |0,0 |0,0 |0,0 |0,0 |0,0 |0,0 |0,0 |0,0 |0,0 |0,0 |0,0 |0,0
    |0,0 |0,0 |0,0 |0,0 |0,0 |0,0 |0,0 |0,0 |0,0 |0,0 |0,0 |0,0 |0,0
    |0,0 |0,0 |0,0 |0,0 |0,0 |0,0 |0,0 |0,0 |0,0 |0,0 |0,0 |0,0 |0,0
    |0,0 |0,0 |0,0 |0,0 |0,0 |0,0 |0,0 |0,0 |0,0 |0,0 |0,0 |0,0 |0,0
    |0,0 |0,0 |0,0 |0,0 |0,0 |0,0 |0,0 |0,0 |0,0 |0,0 ||0,0 |0,0 |0,0
    |0,0 |0,0 |0,0 |0,0 |0,0 |0,0 |0,0 |0,0 |0,0 |0,0 |0,0 |0,0 |0,0
    |0,0 |0,0 |0,0 |0,0 |0,0 |0,0 |0,0 |0,0 |0,0 |0,0 |0,0 |0,0 |0,0
    |0,0 |0,0 |0,0 |0,0 |0,0 |0,0 |0,0 |0,0 |0,0 |0,0 |0,0 |0,0 |0,0
    |0,0 |0,0 |0,0 |0,0 |0,0 |0,0 |0,0 |0,0 |0,0 |0,0 |0,0 |0,0 |0,0
    |0,0 |0,0 |0,0 |0,0 |0,0 |0,0 |0,0 |0,0 |0,0 |0,0 |0,0 |0,0 |0,0
    |0,0 |0,0 |0,0 |0,0 |0,0 |]);

shape = array1d(1..146, [{1}, {2}, {3}, {4}, {5}, {6}, {7}, {8}, {9}, {10},
    {11}, {12}, {13}, {14}, {15}, {16}, {17}, {18}, {19}, {20}, {21},
    {22}, {23}, {24}, {25}, {26}, {27}, {28}, {29}, {30}, {31}, {32},
    {33}, {34}, {35}, {36}, {37}, {38}, {39}, {40}, {41}, {42}, {43},
    {44}, {45}, {46}, {47}, {48}, {49}, {50}, {51}, {52}, {53}, {54},
    {55}, {56}, {57}, {58}, {59}, {60}, {61}, {62}, {63}, {64}, {65},
    {66}, {67}, {68}, {69}, {70}, {71}, {72}, {73}, {74}, {75}, {76},
    {77}, {78}, {79}, {80}, {81}, {82}, {83}, {84}, {85}, {86}, {87},
    {88}, {89}, {90}, {91}, {92}, {93}, {94}, {95}, {96}, {97}, {98},
    {99}, {100}, {101}, {102}, {103}, {104}, {105}, {106}, {107},
    {108}, {109}, {110}, {111}, {112}, {113}, {114}, {115}, {116},
    {117}, {118}, {119}, {120}, {121}, {122}, {123}, {124}, {125},
    {126}, {127}, {128}, {129}, {130}, {131}, {132}, {133}, {134},
    {135}, {136}, {137}, {138}, {139}, {140}, {141}, {142}, {143},
    {144}, {145}, {146}]);

valid_shapes = array1d(1..73, [{1,2}, {3,4}, {5,6}, {7,8}, {9,10}, {11,12}, {13,14},
    {15,16}, {17,18}, {19,20}, {21,22}, {23,24}, {25,26}, {27,28},
    {29,30}, {31,32}, {33,34}, {35,36}, {37,38}, {39,40}, {41,42},
    {43,44}, {45,46}, {47,48}, {49,50}, {51,52}, {53,54}, {55,56},
    {57,58}, {59,60}, {61,62}, {63,64}, {65,66}, {67,68}, {69,70},
    {71,72}, {73,74}, {75,76}, {77,78}, {79,80}, {81,82}, {83,84},
    {85,86}, {87,88}, {89,90}, {91,92}, {93,94}, {95,96}, {97,98},
    {99,100}, {101,102}, {103,104}, {105,106}, {107,108}, {109,110},
    {111,112}, {113,114}, {115,116}, {117,118}, {119,120}, {121,122},
    {123,124}, {125,126}, {127,128}, {129,130}, {131,132}, {133,134},
    {135,136}, {137,138}, {139,140}, {141,142}, {143,144}, {145,146}]);

w = 60;

n = 73;

